32      3       
10      10      10      
0       0       0       0       1       2       
10      1       0       1       1       3       
4       0       1       5       1       4       
7       4       2       0       2       5       6       
6       1       7       4       1       7       
9       0       3       4       1       7       
4       7       2       4       2       8       9       
5       6       0       4       1       10      
5       5       4       0       1       10      
7       3       6       0       2       11      12      
5       3       0       2       1       13      
3       5       6       1       1       13      
6       0       2       7       1       14      
6       7       2       0       1       15      
7       4       0       5       1       16      
2       0       2       4       1       17      
2       3       0       3       2       18      19      
4       3       0       7       1       20      
7       5       0       3       1       20      
8       5       7       4       2       21      22      
7       0       3       3       2       23      25      
4       3       0       3       2       23      25      
6       6       5       5       1       24      
5       0       3       6       1       26      
5       2       6       5       1       26      
5       0       4       4       1       27      
8       5       2       6       1       28      
3       3       0       5       1       29      
7       0       5       4       1       30      
5       3       6       1       1       31      
3       0       6       4       1       32      
0       0       0       0       0       
